c description: Random 3-CNF over 9 variables and 27 clauses
p cnf 9 27
4 5 7 0
-4 -6 9 0
-1 -2 4 0
2 -8 -9 0
5 6 -7 0
-1 -5 7 0
6 8 9 0
3 -6 9 0
-4 7 -9 0
1 -8 9 0
-2 6 7 0
-2 6 -9 0
1 7 -9 0
1 -7 8 0
2 -3 7 0
3 7 -8 0
-5 6 -9 0
-4 5 7 0
-2 4 8 0
4 5 -7 0
-5 -6 7 0
2 -3 -9 0
-3 5 7 0
1 5 8 0
-7 -8 -9 0
1 -6 -7 0
1 -6 9 0